# Test
# This test has two SH particles (with shape coefficients supplied
# in the file A-anm-00001.dat) in a head-on collision.

# The atom stype defines the maximum degree of the SH expansion to
# be 10, and uses 120 quadrature points in both polar and azimuthal
# directions for computation of volume/moment of interia.

# The difference between this and in.test-simple1 is that we use
# the standard potential energy compuation at a lower frequency

atom_style	shdem 10	120 A-anm-00001.dat
units		si
newton          off

###############################################
# Geometry-related parameters
###############################################

variable	boxx equal 100
variable	boxy equal 100
variable	boxz equal 100


region		boxreg block 0 ${boxx} 0 ${boxy} 0 ${boxz}
create_box	2 boxreg
change_box	all boundary f f f

create_atoms 	1 single 34.5 50.0 50.0
create_atoms 	2 single 52.5 50.0 50.0

set 		atom 1 vx  1.0 vy 0.0 vz 0.0
set 		atom 2 vx -1.0 vy 0.0 vz 0.0

set		atom 1 sh/shape 1
set		atom 2 sh/shape 1
set		group all sh/quat/random 4

fix		time_fix all nve/sh

neigh_modify	delay 0 every 1 check yes
comm_modify	vel yes


thermo          10

compute         TransKE all ke
compute         overlap all pe
compute         RotKE   all erotate/shdem
variable        ETotal  equal "c_overlap + c_TransKE + c_RotKE"
variable        ERot    equal "C_RotKE"
thermo_style custom step v_ETotal c_TransKE c_RotKE c_overlap


pair_style 	shdem
pair_coeff      * * 5.0e-2 2.0 30

timestep	1.0e-3
variable 	step equal step
run		1000
