# Test

variable	name string spherical_harmonics_testing
atom_style	shperatom 0 120 /home/james/lammps/examples/USER/spherharm/ellipsoid.dat
units		lj


###############################################
# Geometry-related parameters
###############################################

variable	boxx equal 10
variable	boxy equal 10
variable	boxz equal 10


#############
processors * * 1
region		boxreg block 0 ${boxx} 0 ${boxy} 0 ${boxz}
create_box	1 boxreg
change_box	all boundary f f f
create_atoms 	1 single 1.0 1.0 1.0
create_atoms 	1 single 9.0 9.0 9.0

set 		atom 1 vx 1.0 vy 1.0 vz 1.0
set 		atom 2 vx -1.0 vy -1.0 vz -1.0
set 		group all mass 1.0
set		group all sh/type 1
set		group all sh/quat/random 4

fix		1 all nve/sh

neigh_modify	delay 0 every 1 check yes
comm_modify	vel yes

pair_style 	spherharm
pair_coeff 	* *

#pair_style lj/cut 2.5
#pair_coeff * * 1 1

timestep	0.005

run		1000
